(set-logic QF_SLIA)
(declare-const result String)
(declare-const attack String)
(declare-const prefix RegLan)
(declare-const infix RegLan)
(declare-const postfix RegLan)
(declare-const postfixs String)

(assert (str.in_re attack (re.++ prefix ((_ re.loop 512 512) infix) postfix)))
(assert (= prefix 
     (re.++  (re.++  (str.to_re "\x3c") (re.opt  (str.to_re "\x5c\x2f") )) (re.+  (re.union (re.range "0" "9") (re.union (re.range "\x41" "\x5a") (re.range "\x61" "\x7a"))) ))
))
(assert (= infix 
        (re.inter (re.* (re.+  (re.union (re.range "0" "9") (re.union (re.range "\x41" "\x5a") (re.range "\x61" "\x7a"))) ) ) (re.+  (re.union (re.range "0" "9") (re.union (re.range "\x41" "\x5a") (re.range "\x61" "\x7a"))) ) )
))
(assert (= postfix 
        (re.inter  (re.inter  (re.++  (str.to_re "\x41") (re.*  (re.union (re.union (str.to_re "\t") (str.to_re "\n") (str.to_re "\r") (str.to_re " ")) (re.inter re.allchar (re.comp (re.union (str.to_re "\t") (str.to_re "\n") (str.to_re "\r") (str.to_re " "))))) )) (re.comp (re.+  (re.union (re.range "0" "9") (re.union (re.range "\x41" "\x5a") (re.range "\x61" "\x7a"))) )))  (re.inter  (re.++  (str.to_re "\x41") (re.*  (re.union (re.union (str.to_re "\t") (str.to_re "\n") (str.to_re "\r") (str.to_re " ")) (re.inter re.allchar (re.comp (re.union (str.to_re "\t") (str.to_re "\n") (str.to_re "\r") (str.to_re " "))))) )) (re.comp  (re.++ (re.+  (re.union (re.range "0" "9") (re.union (re.range "\x41" "\x5a") (re.range "\x61" "\x7a"))) )  (re.++ (re.* re.allchar ) (re.++ (re.opt  (str.to_re "\x5c\x2f") )  (str.to_re "\x3e")))))) )
))
(assert (str.in_re postfixs postfix))
(assert (>= (str.len postfixs) 1))
(assert (= result (str.++ attack postfixs)))
(check-sat)
(get-model)